c nIsolatedPIs 0
c maxPI 20
p cnf 313 880
c gate 21 6 13 0
6 -21 0
13 -21 0
-6 -13 21 0
c gate 22 7 12 0
7 -22 0
12 -22 0
-7 -12 22 0
c gate 23 8 11 0
8 -23 0
11 -23 0
-8 -11 23 0
c gate 24 -22 -23 0
-22 -24 0
-23 -24 0
22 23 24 0
c gate 25 22 23 0
22 -25 0
23 -25 0
-22 -23 25 0
c gate 26 -24 -25 0
-24 -26 0
-25 -26 0
24 25 26 0
c gate 27 21 26 0
21 -27 0
26 -27 0
-21 -26 27 0
c gate 28 -21 -26 0
-21 -28 0
-26 -28 0
21 26 28 0
c gate 29 -27 -28 0
-27 -29 0
-28 -29 0
27 28 29 0
c gate 30 6 12 0
6 -30 0
12 -30 0
-6 -12 30 0
c gate 31 7 11 0
7 -31 0
11 -31 0
-7 -11 31 0
c gate 32 -30 -31 0
-30 -32 0
-31 -32 0
30 31 32 0
c gate 33 30 31 0
30 -33 0
31 -33 0
-30 -31 33 0
c gate 34 -32 -33 0
-32 -34 0
-33 -34 0
32 33 34 0
c gate 35 5 13 0
5 -35 0
13 -35 0
-5 -13 35 0
c gate 36 34 -35 0
34 -36 0
-35 -36 0
-34 35 36 0
c gate 37 -32 -36 0
-32 -37 0
-36 -37 0
32 36 37 0
c gate 38 29 37 0
29 -38 0
37 -38 0
-29 -37 38 0
c gate 39 3 16 0
3 -39 0
16 -39 0
-3 -16 39 0
c gate 40 4 15 0
4 -40 0
15 -40 0
-4 -15 40 0
c gate 41 5 14 0
5 -41 0
14 -41 0
-5 -14 41 0
c gate 42 -40 -41 0
-40 -42 0
-41 -42 0
40 41 42 0
c gate 43 40 41 0
40 -43 0
41 -43 0
-40 -41 43 0
c gate 44 -42 -43 0
-42 -44 0
-43 -44 0
42 43 44 0
c gate 45 -39 -44 0
-39 -45 0
-44 -45 0
39 44 45 0
c gate 46 39 44 0
39 -46 0
44 -46 0
-39 -44 46 0
c gate 47 -45 -46 0
-45 -47 0
-46 -47 0
45 46 47 0
c gate 48 -29 -37 0
-29 -48 0
-37 -48 0
29 37 48 0
c gate 49 -38 -48 0
-38 -49 0
-48 -49 0
38 48 49 0
c gate 50 47 49 0
47 -50 0
49 -50 0
-47 -49 50 0
c gate 51 -38 -50 0
-38 -51 0
-50 -51 0
38 50 51 0
c gate 52 4 16 0
4 -52 0
16 -52 0
-4 -16 52 0
c gate 53 5 15 0
5 -53 0
15 -53 0
-5 -15 53 0
c gate 54 6 14 0
6 -54 0
14 -54 0
-6 -14 54 0
c gate 55 -53 -54 0
-53 -55 0
-54 -55 0
53 54 55 0
c gate 56 53 54 0
53 -56 0
54 -56 0
-53 -54 56 0
c gate 57 -55 -56 0
-55 -57 0
-56 -57 0
55 56 57 0
c gate 58 52 57 0
52 -58 0
57 -58 0
-52 -57 58 0
c gate 59 -52 -57 0
-52 -59 0
-57 -59 0
52 57 59 0
c gate 60 -58 -59 0
-58 -60 0
-59 -60 0
58 59 60 0
c gate 61 -25 -27 0
-25 -61 0
-27 -61 0
25 27 61 0
c gate 62 7 13 0
7 -62 0
13 -62 0
-7 -13 62 0
c gate 63 8 12 0
8 -63 0
12 -63 0
-8 -12 63 0
c gate 64 9 11 0
9 -64 0
11 -64 0
-9 -11 64 0
c gate 65 -63 -64 0
-63 -65 0
-64 -65 0
63 64 65 0
c gate 66 63 64 0
63 -66 0
64 -66 0
-63 -64 66 0
c gate 67 -65 -66 0
-65 -67 0
-66 -67 0
65 66 67 0
c gate 68 62 67 0
62 -68 0
67 -68 0
-62 -67 68 0
c gate 69 -62 -67 0
-62 -69 0
-67 -69 0
62 67 69 0
c gate 70 -68 -69 0
-68 -70 0
-69 -70 0
68 69 70 0
c gate 71 -61 70 0
-61 -71 0
70 -71 0
61 -70 71 0
c gate 72 61 -70 0
61 -72 0
-70 -72 0
-61 70 72 0
c gate 73 -71 -72 0
-71 -73 0
-72 -73 0
71 72 73 0
c gate 74 60 73 0
60 -74 0
73 -74 0
-60 -73 74 0
c gate 75 -60 -73 0
-60 -75 0
-73 -75 0
60 73 75 0
c gate 76 -74 -75 0
-74 -76 0
-75 -76 0
74 75 76 0
c gate 77 -51 76 0
-51 -77 0
76 -77 0
51 -76 77 0
c gate 78 1 18 0
1 -78 0
18 -78 0
-1 -18 78 0
c gate 79 2 17 0
2 -79 0
17 -79 0
-2 -17 79 0
c gate 80 78 79 0
78 -80 0
79 -80 0
-78 -79 80 0
c gate 81 1 19 0
1 -81 0
19 -81 0
-1 -19 81 0
c gate 82 2 18 0
2 -82 0
18 -82 0
-2 -18 82 0
c gate 83 3 17 0
3 -83 0
17 -83 0
-3 -17 83 0
c gate 84 -82 -83 0
-82 -84 0
-83 -84 0
82 83 84 0
c gate 85 82 83 0
82 -85 0
83 -85 0
-82 -83 85 0
c gate 86 -84 -85 0
-84 -86 0
-85 -86 0
84 85 86 0
c gate 87 81 86 0
81 -87 0
86 -87 0
-81 -86 87 0
c gate 88 -81 -86 0
-81 -88 0
-86 -88 0
81 86 88 0
c gate 89 -87 -88 0
-87 -89 0
-88 -89 0
87 88 89 0
c gate 90 -43 -46 0
-43 -90 0
-46 -90 0
43 46 90 0
c gate 91 89 -90 0
89 -91 0
-90 -91 0
-89 90 91 0
c gate 92 -89 90 0
-89 -92 0
90 -92 0
89 -90 92 0
c gate 93 -91 -92 0
-91 -93 0
-92 -93 0
91 92 93 0
c gate 94 -80 -93 0
-80 -94 0
-93 -94 0
80 93 94 0
c gate 95 80 93 0
80 -95 0
93 -95 0
-80 -93 95 0
c gate 96 -94 -95 0
-94 -96 0
-95 -96 0
94 95 96 0
c gate 97 51 -76 0
51 -97 0
-76 -97 0
-51 76 97 0
c gate 98 -77 -97 0
-77 -98 0
-97 -98 0
77 97 98 0
c gate 99 96 98 0
96 -99 0
98 -99 0
-96 -98 99 0
c gate 100 -77 -99 0
-77 -100 0
-99 -100 0
77 99 100 0
c gate 101 10 11 0
10 -101 0
11 -101 0
-10 -11 101 0
c gate 102 100 -101 0
100 -102 0
-101 -102 0
-100 101 102 0
c gate 103 -100 101 0
-100 -103 0
101 -103 0
100 -101 103 0
c gate 104 -102 -103 0
-102 -104 0
-103 -104 0
102 103 104 0
c gate 105 -47 -49 0
-47 -105 0
-49 -105 0
47 49 105 0
c gate 106 -50 -105 0
-50 -106 0
-105 -106 0
50 105 106 0
c gate 107 5 12 0
5 -107 0
12 -107 0
-5 -12 107 0
c gate 108 6 11 0
6 -108 0
11 -108 0
-6 -11 108 0
c gate 109 107 108 0
107 -109 0
108 -109 0
-107 -108 109 0
c gate 110 4 13 0
4 -110 0
13 -110 0
-4 -13 110 0
c gate 111 -107 -108 0
-107 -111 0
-108 -111 0
107 108 111 0
c gate 112 -109 -111 0
-109 -112 0
-111 -112 0
109 111 112 0
c gate 113 110 112 0
110 -113 0
112 -113 0
-110 -112 113 0
c gate 114 -109 -113 0
-109 -114 0
-113 -114 0
109 113 114 0
c gate 115 -34 35 0
-34 -115 0
35 -115 0
34 -35 115 0
c gate 116 -36 -115 0
-36 -116 0
-115 -116 0
36 115 116 0
c gate 117 114 116 0
114 -117 0
116 -117 0
-114 -116 117 0
c gate 118 -114 -116 0
-114 -118 0
-116 -118 0
114 116 118 0
c gate 119 -117 -118 0
-117 -119 0
-118 -119 0
117 118 119 0
c gate 120 2 16 0
2 -120 0
16 -120 0
-2 -16 120 0
c gate 121 3 15 0
3 -121 0
15 -121 0
-3 -15 121 0
c gate 122 4 14 0
4 -122 0
14 -122 0
-4 -14 122 0
c gate 123 -121 -122 0
-121 -123 0
-122 -123 0
121 122 123 0
c gate 124 121 122 0
121 -124 0
122 -124 0
-121 -122 124 0
c gate 125 -123 -124 0
-123 -125 0
-124 -125 0
123 124 125 0
c gate 126 120 125 0
120 -126 0
125 -126 0
-120 -125 126 0
c gate 127 -120 -125 0
-120 -127 0
-125 -127 0
120 125 127 0
c gate 128 -126 -127 0
-126 -128 0
-127 -128 0
126 127 128 0
c gate 129 119 -128 0
119 -129 0
-128 -129 0
-119 128 129 0
c gate 130 -117 -129 0
-117 -130 0
-129 -130 0
117 129 130 0
c gate 131 106 130 0
106 -131 0
130 -131 0
-106 -130 131 0
c gate 132 -78 -79 0
-78 -132 0
-79 -132 0
78 79 132 0
c gate 133 -80 -132 0
-80 -133 0
-132 -133 0
80 132 133 0
c gate 134 -124 -126 0
-124 -134 0
-126 -134 0
124 126 134 0
c gate 135 -133 134 0
-133 -135 0
134 -135 0
133 -134 135 0
c gate 136 133 -134 0
133 -136 0
-134 -136 0
-133 134 136 0
c gate 137 -135 -136 0
-135 -137 0
-136 -137 0
135 136 137 0
c gate 138 -106 -130 0
-106 -138 0
-130 -138 0
106 130 138 0
c gate 139 -131 -138 0
-131 -139 0
-138 -139 0
131 138 139 0
c gate 140 137 139 0
137 -140 0
139 -140 0
-137 -139 140 0
c gate 141 -131 -140 0
-131 -141 0
-140 -141 0
131 140 141 0
c gate 142 -96 -98 0
-96 -142 0
-98 -142 0
96 98 142 0
c gate 143 -99 -142 0
-99 -143 0
-142 -143 0
99 142 143 0
c gate 144 -141 143 0
-141 -144 0
143 -144 0
141 -143 144 0
c gate 145 141 -143 0
141 -145 0
-143 -145 0
-141 143 145 0
c gate 146 -144 -145 0
-144 -146 0
-145 -146 0
144 145 146 0
c gate 147 136 146 0
136 -147 0
146 -147 0
-136 -146 147 0
c gate 148 -144 -147 0
-144 -148 0
-147 -148 0
144 147 148 0
c gate 149 -71 -74 0
-71 -149 0
-74 -149 0
71 74 149 0
c gate 150 -66 -68 0
-66 -150 0
-68 -150 0
66 68 150 0
c gate 151 149 -150 0
149 -151 0
-150 -151 0
-149 150 151 0
c gate 152 -149 150 0
-149 -152 0
150 -152 0
149 -150 152 0
c gate 153 -151 -152 0
-151 -153 0
-152 -153 0
151 152 153 0
c gate 154 148 -153 0
148 -154 0
-153 -154 0
-148 153 154 0
c gate 155 -148 153 0
-148 -155 0
153 -155 0
148 -153 155 0
c gate 156 -154 -155 0
-154 -156 0
-155 -156 0
154 155 156 0
c gate 157 104 156 0
104 -157 0
156 -157 0
-104 -156 157 0
c gate 158 -104 -156 0
-104 -158 0
-156 -158 0
104 156 158 0
c gate 159 -157 -158 0
-157 -159 0
-158 -159 0
157 158 159 0
c gate 160 -91 -95 0
-91 -160 0
-95 -160 0
91 95 160 0
c gate 161 5 16 0
5 -161 0
16 -161 0
-5 -16 161 0
c gate 162 9 12 0
9 -162 0
12 -162 0
-9 -12 162 0
c gate 163 8 13 0
8 -163 0
13 -163 0
-8 -13 163 0
c gate 164 -162 163 0
-162 -164 0
163 -164 0
162 -163 164 0
c gate 165 162 -163 0
162 -165 0
-163 -165 0
-162 163 165 0
c gate 166 -164 -165 0
-164 -166 0
-165 -166 0
164 165 166 0
c gate 167 161 -166 0
161 -167 0
-166 -167 0
-161 166 167 0
c gate 168 -161 166 0
-161 -168 0
166 -168 0
161 -166 168 0
c gate 169 -167 -168 0
-167 -169 0
-168 -169 0
167 168 169 0
c gate 170 160 -169 0
160 -170 0
-169 -170 0
-160 169 170 0
c gate 171 -160 169 0
-160 -171 0
169 -171 0
160 -169 171 0
c gate 172 -170 -171 0
-170 -172 0
-171 -172 0
170 171 172 0
c gate 173 1 20 0
1 -173 0
20 -173 0
-1 -20 173 0
c gate 174 3 18 0
3 -174 0
18 -174 0
-3 -18 174 0
c gate 175 -85 -87 0
-85 -175 0
-87 -175 0
85 87 175 0
c gate 176 174 -175 0
174 -176 0
-175 -176 0
-174 175 176 0
c gate 177 -174 175 0
-174 -177 0
175 -177 0
174 -175 177 0
c gate 178 -176 -177 0
-176 -178 0
-177 -178 0
176 177 178 0
c gate 179 4 17 0
4 -179 0
17 -179 0
-4 -17 179 0
c gate 180 -56 -58 0
-56 -180 0
-58 -180 0
56 58 180 0
c gate 181 179 -180 0
179 -181 0
-180 -181 0
-179 180 181 0
c gate 182 -179 180 0
-179 -182 0
180 -182 0
179 -180 182 0
c gate 183 -181 -182 0
-181 -183 0
-182 -183 0
181 182 183 0
c gate 184 2 19 0
2 -184 0
19 -184 0
-2 -19 184 0
c gate 185 183 -184 0
183 -185 0
-184 -185 0
-183 184 185 0
c gate 186 -183 184 0
-183 -186 0
184 -186 0
183 -184 186 0
c gate 187 -185 -186 0
-185 -187 0
-186 -187 0
185 186 187 0
c gate 188 178 187 0
178 -188 0
187 -188 0
-178 -187 188 0
c gate 189 -178 -187 0
-178 -189 0
-187 -189 0
178 187 189 0
c gate 190 -188 -189 0
-188 -190 0
-189 -190 0
188 189 190 0
c gate 191 6 15 0
6 -191 0
15 -191 0
-6 -15 191 0
c gate 192 7 14 0
7 -192 0
14 -192 0
-7 -14 192 0
c gate 193 191 -192 0
191 -193 0
-192 -193 0
-191 192 193 0
c gate 194 -191 192 0
-191 -194 0
192 -194 0
191 -192 194 0
c gate 195 -193 -194 0
-193 -195 0
-194 -195 0
193 194 195 0
c gate 196 190 -195 0
190 -196 0
-195 -196 0
-190 195 196 0
c gate 197 -190 195 0
-190 -197 0
195 -197 0
190 -195 197 0
c gate 198 -196 -197 0
-196 -198 0
-197 -198 0
196 197 198 0
c gate 199 173 -198 0
173 -199 0
-198 -199 0
-173 198 199 0
c gate 200 -173 198 0
-173 -200 0
198 -200 0
173 -198 200 0
c gate 201 -199 -200 0
-199 -201 0
-200 -201 0
199 200 201 0
c gate 202 172 201 0
172 -202 0
201 -202 0
-172 -201 202 0
c gate 203 -172 -201 0
-172 -203 0
-201 -203 0
172 201 203 0
c gate 204 -202 -203 0
-202 -204 0
-203 -204 0
202 203 204 0
c gate 205 -159 204 0
-159 -205 0
204 -205 0
159 -204 205 0
c gate 206 159 -204 0
159 -206 0
-204 -206 0
-159 204 206 0
c gate 207 -110 -112 0
-110 -207 0
-112 -207 0
110 112 207 0
c gate 208 -113 -207 0
-113 -208 0
-207 -208 0
113 207 208 0
c gate 209 4 12 0
4 -209 0
12 -209 0
-4 -12 209 0
c gate 210 5 11 0
5 -210 0
11 -210 0
-5 -11 210 0
c gate 211 -209 -210 0
-209 -211 0
-210 -211 0
209 210 211 0
c gate 212 209 210 0
209 -212 0
210 -212 0
-209 -210 212 0
c gate 213 -211 -212 0
-211 -213 0
-212 -213 0
211 212 213 0
c gate 214 3 13 0
3 -214 0
13 -214 0
-3 -13 214 0
c gate 215 213 -214 0
213 -215 0
-214 -215 0
-213 214 215 0
c gate 216 -211 -215 0
-211 -216 0
-215 -216 0
211 215 216 0
c gate 217 208 216 0
208 -217 0
216 -217 0
-208 -216 217 0
c gate 218 1 16 0
1 -218 0
16 -218 0
-1 -16 218 0
c gate 219 2 15 0
2 -219 0
15 -219 0
-2 -15 219 0
c gate 220 3 14 0
3 -220 0
14 -220 0
-3 -14 220 0
c gate 221 -219 -220 0
-219 -221 0
-220 -221 0
219 220 221 0
c gate 222 219 220 0
219 -222 0
220 -222 0
-219 -220 222 0
c gate 223 -221 -222 0
-221 -223 0
-222 -223 0
221 222 223 0
c gate 224 218 223 0
218 -224 0
223 -224 0
-218 -223 224 0
c gate 225 -218 -223 0
-218 -225 0
-223 -225 0
218 223 225 0
c gate 226 -224 -225 0
-224 -226 0
-225 -226 0
224 225 226 0
c gate 227 -208 -216 0
-208 -227 0
-216 -227 0
208 216 227 0
c gate 228 -217 -227 0
-217 -228 0
-227 -228 0
217 227 228 0
c gate 229 226 228 0
226 -229 0
228 -229 0
-226 -228 229 0
c gate 230 -217 -229 0
-217 -230 0
-229 -230 0
217 229 230 0
c gate 231 -119 128 0
-119 -231 0
128 -231 0
119 -128 231 0
c gate 232 -129 -231 0
-129 -232 0
-231 -232 0
129 231 232 0
c gate 233 -230 -232 0
-230 -233 0
-232 -233 0
230 232 233 0
c gate 234 230 232 0
230 -234 0
232 -234 0
-230 -232 234 0
c gate 235 -233 -234 0
-233 -235 0
-234 -235 0
233 234 235 0
c gate 236 1 17 0
1 -236 0
17 -236 0
-1 -17 236 0
c gate 237 -222 -224 0
-222 -237 0
-224 -237 0
222 224 237 0
c gate 238 236 -237 0
236 -238 0
-237 -238 0
-236 237 238 0
c gate 239 -236 237 0
-236 -239 0
237 -239 0
236 -237 239 0
c gate 240 -238 -239 0
-238 -240 0
-239 -240 0
238 239 240 0
c gate 241 235 240 0
235 -241 0
240 -241 0
-235 -240 241 0
c gate 242 -233 -241 0
-233 -242 0
-241 -242 0
233 241 242 0
c gate 243 -137 -139 0
-137 -243 0
-139 -243 0
137 139 243 0
c gate 244 -140 -243 0
-140 -244 0
-243 -244 0
140 243 244 0
c gate 245 -242 244 0
-242 -245 0
244 -245 0
242 -244 245 0
c gate 246 -136 -146 0
-136 -246 0
-146 -246 0
136 146 246 0
c gate 247 -147 -246 0
-147 -247 0
-246 -247 0
147 246 247 0
c gate 248 245 -247 0
245 -248 0
-247 -248 0
-245 247 248 0
c gate 249 -245 247 0
-245 -249 0
247 -249 0
245 -247 249 0
c gate 250 -248 -249 0
-248 -250 0
-249 -250 0
248 249 250 0
c gate 251 242 -244 0
242 -251 0
-244 -251 0
-242 244 251 0
c gate 252 -245 -251 0
-245 -252 0
-251 -252 0
245 251 252 0
c gate 253 -238 -252 0
-238 -253 0
-252 -253 0
238 252 253 0
c gate 254 238 252 0
238 -254 0
252 -254 0
-238 -252 254 0
c gate 255 3 12 0
3 -255 0
12 -255 0
-3 -12 255 0
c gate 256 4 11 0
4 -256 0
11 -256 0
-4 -11 256 0
c gate 257 255 256 0
255 -257 0
256 -257 0
-255 -256 257 0
c gate 258 -255 -256 0
-255 -258 0
-256 -258 0
255 256 258 0
c gate 259 -257 -258 0
-257 -259 0
-258 -259 0
257 258 259 0
c gate 260 2 13 0
2 -260 0
13 -260 0
-2 -13 260 0
c gate 261 259 260 0
259 -261 0
260 -261 0
-259 -260 261 0
c gate 262 -257 -261 0
-257 -262 0
-261 -262 0
257 261 262 0
c gate 263 -213 214 0
-213 -263 0
214 -263 0
213 -214 263 0
c gate 264 -215 -263 0
-215 -264 0
-263 -264 0
215 263 264 0
c gate 265 -262 -264 0
-262 -265 0
-264 -265 0
262 264 265 0
c gate 266 262 264 0
262 -266 0
264 -266 0
-262 -264 266 0
c gate 267 -265 -266 0
-265 -267 0
-266 -267 0
265 266 267 0
c gate 268 1 15 0
1 -268 0
15 -268 0
-1 -15 268 0
c gate 269 2 14 0
2 -269 0
14 -269 0
-2 -14 269 0
c gate 270 268 269 0
268 -270 0
269 -270 0
-268 -269 270 0
c gate 271 -268 -269 0
-268 -271 0
-269 -271 0
268 269 271 0
c gate 272 -270 -271 0
-270 -272 0
-271 -272 0
270 271 272 0
c gate 273 267 272 0
267 -273 0
272 -273 0
-267 -272 273 0
c gate 274 -265 -273 0
-265 -274 0
-273 -274 0
265 273 274 0
c gate 275 -226 -228 0
-226 -275 0
-228 -275 0
226 228 275 0
c gate 276 -229 -275 0
-229 -276 0
-275 -276 0
229 275 276 0
c gate 277 -274 276 0
-274 -277 0
276 -277 0
274 -276 277 0
c gate 278 274 -276 0
274 -278 0
-276 -278 0
-274 276 278 0
c gate 279 -277 -278 0
-277 -279 0
-278 -279 0
277 278 279 0
c gate 280 270 279 0
270 -280 0
279 -280 0
-270 -279 280 0
c gate 281 -277 -280 0
-277 -281 0
-280 -281 0
277 280 281 0
c gate 282 -235 -240 0
-235 -282 0
-240 -282 0
235 240 282 0
c gate 283 -241 -282 0
-241 -283 0
-282 -283 0
241 282 283 0
c gate 284 281 -283 0
281 -284 0
-283 -284 0
-281 283 284 0
c gate 285 -281 283 0
-281 -285 0
283 -285 0
281 -283 285 0
c gate 286 -270 -279 0
-270 -286 0
-279 -286 0
270 279 286 0
c gate 287 -280 -286 0
-280 -287 0
-286 -287 0
280 286 287 0
c gate 288 -259 -260 0
-259 -288 0
-260 -288 0
259 260 288 0
c gate 289 -261 -288 0
-261 -289 0
-288 -289 0
261 288 289 0
c gate 290 3 11 0
3 -290 0
11 -290 0
-3 -11 290 0
c gate 291 2 12 0
2 -291 0
12 -291 0
-2 -12 291 0
c gate 292 290 291 0
290 -292 0
291 -292 0
-290 -291 292 0
c gate 293 -290 -291 0
-290 -293 0
-291 -293 0
290 291 293 0
c gate 294 1 13 0
1 -294 0
13 -294 0
-1 -13 294 0
c gate 295 -293 294 0
-293 -295 0
294 -295 0
293 -294 295 0
c gate 296 -292 -295 0
-292 -296 0
-295 -296 0
292 295 296 0
c gate 297 289 -296 0
289 -297 0
-296 -297 0
-289 296 297 0
c gate 298 1 14 0
1 -298 0
14 -298 0
-1 -14 298 0
c gate 299 -289 296 0
-289 -299 0
296 -299 0
289 -296 299 0
c gate 300 -297 -299 0
-297 -300 0
-299 -300 0
297 299 300 0
c gate 301 298 300 0
298 -301 0
300 -301 0
-298 -300 301 0
c gate 302 -297 -301 0
-297 -302 0
-301 -302 0
297 301 302 0
c gate 303 -267 -272 0
-267 -303 0
-272 -303 0
267 272 303 0
c gate 304 -273 -303 0
-273 -304 0
-303 -304 0
273 303 304 0
c gate 305 -302 304 0
-302 -305 0
304 -305 0
302 -304 305 0
c gate 306 287 305 0
287 -306 0
305 -306 0
-287 -305 306 0
c gate 307 -285 306 0
-285 -307 0
306 -307 0
285 -306 307 0
c gate 308 -284 307 0
-284 -308 0
307 -308 0
284 -307 308 0
c gate 309 -254 308 0
-254 -309 0
308 -309 0
254 -308 309 0
c gate 310 -253 309 0
-253 -310 0
309 -310 0
253 -309 310 0
c gate 311 -250 310 0
-250 -311 0
310 -311 0
250 -310 311 0
c gate 312 -206 311 0
-206 -312 0
311 -312 0
206 -311 312 0
c gate 313 -205 312 0
-205 -313 0
312 -313 0
205 -312 313 0
c PO
313 0
